40
402
20
0 1
0 2
0 3
0 6
0 9
0 12
0 16
0 19
0 20
0 21
0 22
0 25
0 26
0 32
0 36
0 38
0 39
1 2
1 6
1 11
1 15
1 17
1 18
1 19
1 21
1 22
1 23
1 24
1 26
1 27
1 29
1 30
1 32
1 33
1 37
1 38
1 39
2 3
2 5
2 6
2 10
2 12
2 13
2 15
2 16
2 17
2 19
2 20
2 21
2 22
2 23
2 25
2 26
2 27
2 28
2 30
2 33
2 34
2 36
3 4
3 6
3 7
3 8
3 10
3 11
3 13
3 14
3 16
3 17
3 18
3 19
3 20
3 23
3 25
3 26
3 28
3 30
3 31
3 33
3 34
3 37
3 39
4 6
4 7
4 8
4 9
4 12
4 13
4 14
4 16
4 19
4 20
4 21
4 23
4 25
4 26
4 27
4 28
4 29
4 31
4 32
4 33
4 34
4 38
4 39
5 6
5 7
5 8
5 9
5 10
5 13
5 15
5 16
5 18
5 20
5 25
5 26
5 28
5 30
5 31
5 33
5 35
5 38
5 39
6 8
6 9
6 10
6 13
6 15
6 17
6 19
6 20
6 21
6 22
6 23
6 24
6 26
6 27
6 29
6 33
6 35
6 37
7 8
7 10
7 11
7 21
7 26
7 27
7 32
7 35
7 36
7 37
7 38
8 10
8 11
8 12
8 14
8 15
8 16
8 17
8 19
8 22
8 24
8 26
8 27
8 28
8 34
8 35
8 36
9 13
9 14
9 16
9 20
9 21
9 23
9 25
9 26
9 27
9 28
9 32
9 34
9 36
9 37
9 39
10 11
10 12
10 13
10 15
10 17
10 18
10 22
10 23
10 27
10 28
10 31
10 32
10 33
10 34
10 35
10 37
11 14
11 15
11 16
11 18
11 19
11 22
11 25
11 26
11 27
11 32
11 34
11 36
11 39
12 14
12 15
12 16
12 17
12 19
12 21
12 22
12 23
12 28
12 29
12 30
12 31
12 34
12 35
12 36
12 37
13 14
13 17
13 22
13 23
13 25
13 26
13 30
13 33
13 34
13 35
13 39
14 19
14 21
14 24
14 26
14 28
14 29
14 33
14 35
14 36
14 38
14 39
15 16
15 18
15 19
15 20
15 22
15 23
15 24
15 25
15 26
15 27
15 28
15 30
15 32
15 33
16 18
16 19
16 24
16 25
16 26
16 31
16 32
16 34
16 36
16 37
16 39
17 18
17 19
17 20
17 21
17 22
17 23
17 27
17 28
17 29
17 33
17 34
17 35
17 36
17 38
17 39
18 21
18 22
18 23
18 25
18 26
18 28
18 33
18 37
19 20
19 21
19 22
19 23
19 24
19 25
19 29
19 30
19 34
19 38
20 21
20 24
20 27
20 28
20 32
20 35
20 36
20 38
21 22
21 27
21 29
21 30
21 31
21 32
21 34
21 37
21 38
21 39
22 26
22 27
22 28
22 30
22 31
22 32
22 34
22 38
23 24
23 27
23 28
23 30
23 34
23 35
23 37
23 38
24 25
24 26
24 27
24 29
24 32
24 33
24 38
24 39
25 26
25 27
25 28
25 29
25 30
25 31
25 35
25 37
25 38
26 28
26 29
26 31
26 34
26 37
26 38
27 29
27 30
27 34
27 38
27 39
28 33
28 34
28 35
28 36
28 37
28 39
29 32
29 34
29 35
30 31
30 32
30 33
30 34
30 39
31 34
31 35
31 37
32 33
32 38
32 39
33 35
33 36
33 37
34 35
34 37
34 38
34 39
35 39
36 38
37 38
38 39
2 30
0 23
12 37
15 38
9 22
1 3
10 21
5 7
32 39
18 26
16 36
25 31
6 8
11 19
17 29
14 35
4 34
13 33
24 28
20 27
